//Objective Function 

max: 53.3 P11 + 71.0 P21 + 79.6 P31 + 70.7 P41 + 68.7 P51 + 37.1 P61 + 67.1 P71 + 55.8 P81 + 40.7 P91 + 54.7 P101 + 53.5 P111 + 61.1 P121 + 53.3 P12 + 71.0 P22 + 79.6 P32 + 70.7 P42 + 68.7 P52 + 37.1 P62 + 67.1 P72 + 55.8 P82 + 40.7 P92 + 54.7 P102 + 53.5 P112 + 61.1 P122 + 53.3 P13 + 71.0 P23 + 79.6 P33 + 70.7 P43 + 68.7 P53 + 37.1 P63 + 67.1 P73 + 55.8 P83 + 40.7 P93 + 54.7 P103 + 53.5 P113 + 61.1 P123 + 53.3 P14 + 71.0 P24 + 79.6 P34 + 70.7 P44 + 68.7 P54 + 37.1 P64 + 67.1 P74 + 55.8 P84 + 40.7 P94 + 54.7 P104 + 53.5 P114 + 61.1 P124; 

// Constraints
P11 + P21 + P31 + P41 + P51 + P61 + P71 + P81 + P91 + P101 + P111 + P121 = 3;
P21 + P22 + P32 + P42 + P52 + P62 + P72 + P82 + P92 + P102 + P112 + P122 = 3; 
P23 + P23 + P33 + P43 + P53 + P63 + P73 + P83 + P93 + P103 + P113 + P123 = 3;
P24 + P24 + P34 + P44 + P54 + P64 + P74 + P84 + P94 + P104 + P114 + P124 = 3;
P11 + P12 + P13 + P14 = 1;
P21 + P22 + P23 + P24 = 1;
P31 + P32 + P33 + P34 = 1;
P41 + P42 + P43 + P44 = 1;
P51 + P52 + P53 + P54 = 1; 
P61 + P62 + P63 + P64 = 1;
P71 + P72 + P73 + P74 = 1;
P81 + P82 + P83 + P84 = 1;
P91 + P92 + P93 + P94 = 1;
P101 + P102 + P103 + P104 = 1;
P111 + P112 + P113 + P114 = 1;
P121 + P122 + P123 + P124 = 1; 
 
int P11, P21, P31, P41, P51, P61, P71, P81, P91, P101, P111, P121, P12, P22, P32, P42, P52, P62, P72, P82, P92, P102, P112, P122, P13, P23, P33, P43, P53, P63, P73, P83, P93, P103, P113, P123, P14, P24, P34, P44, P54, P64, P74, P84, P94, P104, P114, P124;
 